(set-logic ALL)
(set-option :produce-models true)
(declare-sort BoundSet 0)
(declare-sort UnboundSet 0)
(set-option :finite-model-find true)
(declare-fun IsSurvived (BoundSet BoundSet) Bool)
(declare-fun IsWaiting (BoundSet BoundSet) Bool)
(assert (not (=> (exists ((a BoundSet)) (exists ((b BoundSet)) (IsSurvived a b))) (exists ((c BoundSet)) (exists ((a BoundSet)) (IsWaiting a c))))))
(check-sat)
(get-model)